cases/matpower/case5_db.m
ipopt
[warn | PowerModels]: added zero cost function data for dclines
[warn | PowerModels]: active generators found at bus 1, updating to bus type from 1 to 2
[warn | PowerModels]: active generators found at bus 5, updating to bus type from 1 to 2
[warn | PowerModels]: the voltage setpoint on generator 4 does not match the value at bus 5
[warn | PowerModels]: the voltage setpoint on generator 2 does not match the value at bus 1
[warn | PowerModels]: the to bus voltage setpoint on dc line 1 does not match the value at bus 5
[info | PowerModels]: removing 3 cost terms from dcline 1: Float64[]

******************************************************************************
This program contains Ipopt, a library for large-scale nonlinear optimization.
 Ipopt is released as open source code under the Eclipse Public License (EPL).
         For more information visit http://projects.coin-or.org/Ipopt
******************************************************************************

This is Ipopt version 3.13.2, running with linear solver mumps.
NOTE: Other linear solvers might be more efficient (see Ipopt documentation).

Number of nonzeros in equality constraint Jacobian...:      111
Number of nonzeros in inequality constraint Jacobian.:       32
Number of nonzeros in Lagrangian Hessian.............:      176

Total number of variables............................:       38
                     variables with only lower bounds:        0
                variables with lower and upper bounds:       33
                     variables with only upper bounds:        0
Total number of equality constraints.................:       28
Total number of inequality constraints...............:       16
        inequality constraints with only lower bounds:        4
   inequality constraints with lower and upper bounds:        0
        inequality constraints with only upper bounds:       12

iter    objective    inf_pr   inf_du lg(mu)  ||d||  lg(rg) alpha_du alpha_pr  ls
   0  7.0599921e+01 3.99e+00 2.91e+01  -1.0 0.00e+00    -  0.00e+00 0.00e+00   0
   1  6.0283858e+03 2.76e+00 1.05e+02  -1.0 3.19e+00  -4.0 3.19e-03 3.07e-01h  1
   2  4.2395109e+03 2.63e+00 9.99e+01  -1.0 1.63e+01  -4.5 7.43e-02 4.97e-02f  1
   3  4.3023089e+03 2.59e+00 9.83e+01  -1.0 7.09e+00  -5.0 4.18e-01 1.29e-02h  1
   4  8.2271634e+03 1.01e+00 3.83e+01  -1.0 6.66e+00  -5.4 6.01e-01 6.11e-01H  1
   5  8.7957555e+03 8.53e-01 2.85e+01  -1.0 2.26e+00  -5.9 5.60e-01 1.55e-01h  1
   6  9.0894393e+03 7.74e-01 2.50e+01  -1.0 2.39e+00  -6.4 8.31e-01 9.17e-02h  1
   7  9.1165768e+03 7.67e-01 2.48e+01  -1.0 1.72e+00  -6.9 3.80e-02 9.52e-03h  1
   8  1.0592574e+04 6.18e-01 4.12e+01  -1.0 1.89e+00  -7.3 1.69e-03 1.95e-01h  1
   9  1.6691849e+04 1.85e-02 5.22e+00  -1.0 1.54e+00  -7.8 6.53e-01 9.90e-01h  1
iter    objective    inf_pr   inf_du lg(mu)  ||d||  lg(rg) alpha_du alpha_pr  ls
  10  1.6755822e+04 4.37e-04 7.19e+00  -1.0 2.23e-01  -8.3 1.00e+00 9.90e-01h  1
  11  1.6756582e+04 4.46e-06 2.58e+02  -1.0 4.45e-02  -8.8 1.00e+00 9.96e-01h  1
  12  1.6756587e+04 1.38e-09 1.00e-06  -1.0 7.28e-04  -9.2 1.00e+00 1.00e+00h  1
  13  1.6743006e+04 2.50e-03 9.35e+05  -5.7 2.12e-01  -9.7 8.61e-01 1.00e+00f  1
  14  1.6739340e+04 1.07e-02 2.46e+05  -5.7 2.56e-01 -10.2 7.37e-01 1.00e+00h  1
  15  1.6739040e+04 1.11e-03 9.13e+03  -5.7 1.20e-01 -10.7 9.63e-01 9.56e-01h  1
  16  1.6739053e+04 1.55e-05 5.83e-04  -5.7 7.41e-02 -11.2 1.00e+00 1.00e+00h  1
  17  1.6739065e+04 9.63e-07 4.00e-05  -5.7 1.01e-02 -11.6 1.00e+00 1.00e+00h  1
  18  1.6739066e+04 4.43e-09 2.00e-07  -5.7 1.03e-02 -12.1 1.00e+00 1.00e+00h  1
  19  1.6739065e+04 7.97e-10 4.85e-01  -8.6 3.37e-04 -12.6 1.00e+00 9.97e-01h  1
iter    objective    inf_pr   inf_du lg(mu)  ||d||  lg(rg) alpha_du alpha_pr  ls
  20  1.6739065e+04 3.28e-14 4.24e-12  -8.6 1.21e-03 -13.1 1.00e+00 1.00e+00f  1

Number of Iterations....: 20

                                   (scaled)                 (unscaled)
Objective...............:   4.1847663575873139e+02    1.6739065430349256e+04
Dual infeasibility......:   4.2412050798223804e-12    1.6964820319289522e-10
Constraint violation....:   2.1175106112991670e-14    3.2758518120346025e-14
Complementarity.........:   2.5093449870700659e-09    1.0037379948280263e-07
Overall NLP error.......:   2.5093449870700659e-09    1.0037379948280263e-07


Number of objective function evaluations             = 22
Number of objective gradient evaluations             = 21
Number of equality constraint evaluations            = 22
Number of inequality constraint evaluations          = 22
Number of equality constraint Jacobian evaluations   = 21
Number of inequality constraint Jacobian evaluations = 21
Number of Lagrangian Hessian evaluations             = 20
Total CPU secs in IPOPT (w/o function evaluations)   =      1.237
Total CPU secs in NLP function evaluations           =      2.293

EXIT: Optimal Solution Found.
Time to Solution........:4.243884086608887
